Route 1: 0 24 23 62 34 93 12 99 16 81 0
Route 2: 0 27 10 28 35 80 14 0
Route 3: 0 22 47 75 6 91 4 40 0
Route 4: 0 20 31 57 43 68 1 0
Route 5: 0 44 52 45 18 71 70 78 9 79 7 0
Route 6: 0 87 41 56 30 97 15 60 82 85 19 96 21 0
Route 7: 0 38 42 77 50 92 100 84 98 13 83 64 0
Route 8: 0 55 61 46 89 5 33 69 58 29 53 0
Route 9: 0 36 63 74 25 48 95 88 90 0
Route 10: 0 67 2 8 54 26 94 11 3 51 59 76 49 0
Route 11: 0 39 17 73 66 37 65 72 0
Route 12: 0 32 86 0
